
Gurobi 8.1.1 (win64) logging started 11/23/19 16:03:02

Changed value of parameter LogFile to logs/full/feas/full-05-30-2.log
   Prev: gurobi.log  Default: 
Changed value of parameter LogToConsole to 0
   Prev: 1  Min: 0  Max: 1  Default: 1
Changed value of parameter TimeLimit to 3600.0
   Prev: 1e+100  Min: 0.0  Max: 1e+100  Default: 1e+100
Optimize a model with 802 rows, 369 columns and 2952 nonzeros
Variable types: 0 continuous, 369 integer (360 binary)
Coefficient statistics:
  Matrix range     [1e+00, 4e+02]
  Objective range  [1e+00, 1e+00]
  Bounds range     [1e+00, 1e+00]
  RHS range        [1e+00, 4e+02]
Presolve time: 0.01s
Presolved: 802 rows, 369 columns, 2952 nonzeros
Variable types: 0 continuous, 369 integer (360 binary)

Root relaxation: objective 3.600000e+01, 131 iterations, 0.01 seconds

    Nodes    |    Current Node    |     Objective Bounds      |     Work
 Expl Unexpl |  Obj  Depth IntInf | Incumbent    BestBd   Gap | It/Node Time

     0     0   36.00000    0   99          -   36.00000      -     -    0s
     0     0   36.95931    0  135          -   36.95931      -     -    0s
     0     0   43.89942    0   96          -   43.89942      -     -    0s
     0     0   44.04268    0   84          -   44.04268      -     -    0s
     0     0   44.04268    0   90          -   44.04268      -     -    0s
     0     0   44.04268    0   88          -   44.04268      -     -    0s
     0     0   44.04268    0   77          -   44.04268      -     -    0s
H    0     0                     179.0000000   44.04268  75.4%     -    0s
H    0     0                     177.0000000   44.04268  75.1%     -    0s
     0     2   44.04268    0   65  177.00000   44.04268  75.1%     -    0s
* 1709   763              75     176.0000000   93.00000  47.2%  11.3    1s
* 1759   662              70     160.0000000   93.00000  41.9%  11.1    1s
H 2242   486                     155.0000000  110.00000  29.0%  10.5    1s
H 2307   485                     153.0000000  110.00000  28.1%  10.4    1s
* 2315   462              44     149.0000000  110.00000  26.2%  10.4    1s

Cutting planes:
  Gomory: 16
  MIR: 6
  StrongCG: 3

Explored 3158 nodes (32443 simplex iterations) in 1.58 seconds
Thread count was 4 (of 4 available processors)

Solution count 7: 149 153 155 ... 179

Optimal solution found (tolerance 1.00e-04)
Best objective 1.490000000000e+02, best bound 1.490000000000e+02, gap 0.0000%

Gurobi 8.1.1 (win64) logging started 11/23/19 16:03:04

Changed value of parameter LogFile to logs/full/feas/full-05-30-2.log
   Prev: gurobi.log  Default: 
Changed value of parameter LogToConsole to 0
   Prev: 1  Min: 0  Max: 1  Default: 1
Changed value of parameter TimeLimit to 3600.0
   Prev: 1e+100  Min: 0.0  Max: 1e+100  Default: 1e+100
Optimize a model with 472 rows, 217 columns and 1722 nonzeros
Variable types: 0 continuous, 217 integer (210 binary)
Coefficient statistics:
  Matrix range     [1e+00, 4e+02]
  Objective range  [1e+00, 1e+00]
  Bounds range     [1e+00, 1e+00]
  RHS range        [1e+00, 4e+02]
Presolve time: 0.01s
Presolved: 472 rows, 217 columns, 1722 nonzeros
Variable types: 0 continuous, 217 integer (210 binary)

Root relaxation: objective 2.233333e+01, 155 iterations, 0.00 seconds

    Nodes    |    Current Node    |     Objective Bounds      |     Work
 Expl Unexpl |  Obj  Depth IntInf | Incumbent    BestBd   Gap | It/Node Time

     0     0   22.33333    0  115          -   22.33333      -     -    0s
H    0     0                     171.0000000   22.33333  86.9%     -    0s
H    0     0                     157.0000000   22.33333  85.8%     -    0s
     0     0   32.02512    0   71  157.00000   32.02512  79.6%     -    0s
     0     0   35.46982    0   61  157.00000   35.46982  77.4%     -    0s
     0     0   35.60766    0   57  157.00000   35.60766  77.3%     -    0s
     0     0   35.60766    0   59  157.00000   35.60766  77.3%     -    0s
     0     0   35.97399    0   56  157.00000   35.97399  77.1%     -    0s
     0     0   36.20808    0   72  157.00000   36.20808  76.9%     -    0s
     0     0   36.20808    0   73  157.00000   36.20808  76.9%     -    0s
     0     0   37.67248    0   70  157.00000   37.67248  76.0%     -    0s
     0     0   37.97655    0   45  157.00000   37.97655  75.8%     -    0s
     0     0   38.64609    0   64  157.00000   38.64609  75.4%     -    0s
     0     0   38.74843    0   66  157.00000   38.74843  75.3%     -    0s
     0     0   38.76394    0   67  157.00000   38.76394  75.3%     -    0s
     0     0   38.76394    0   69  157.00000   38.76394  75.3%     -    0s
     0     0   39.82816    0   67  157.00000   39.82816  74.6%     -    0s
H    0     0                     156.0000000   39.82816  74.5%     -    0s
     0     0   40.54948    0   65  156.00000   40.54948  74.0%     -    0s
     0     0   40.75980    0   67  156.00000   40.75980  73.9%     -    0s
     0     0   40.75980    0   67  156.00000   40.75980  73.9%     -    0s
     0     0   40.75980    0   67  156.00000   40.75980  73.9%     -    0s
     0     0   40.75980    0   68  156.00000   40.75980  73.9%     -    0s
     0     0   40.75980    0   65  156.00000   40.75980  73.9%     -    0s
     0     0   40.75980    0   54  156.00000   40.75980  73.9%     -    0s
     0     2   40.75980    0   49  156.00000   40.75980  73.9%     -    0s
H  763   480                     154.0000000   79.93424  48.1%   9.1    0s
H  768   459                     146.0000000   79.93424  45.3%   9.1    0s
*  847   433              26     145.0000000   81.00000  44.1%  12.6    0s
* 1318   232              36     143.0000000   89.00000  37.8%  13.8    0s

Cutting planes:
  Gomory: 11
  Implied bound: 2
  MIR: 3
  StrongCG: 1

Explored 1361 nodes (20686 simplex iterations) in 0.92 seconds
Thread count was 4 (of 4 available processors)

Solution count 7: 143 145 146 ... 171

Optimal solution found (tolerance 1.00e-04)
Best objective 1.430000000000e+02, best bound 1.430000000000e+02, gap 0.0000%

Gurobi 8.1.1 (win64) logging started 11/23/19 16:03:05

Changed value of parameter LogFile to logs/full/feas/full-05-30-2.log
   Prev: gurobi.log  Default: 
Changed value of parameter LogToConsole to 0
   Prev: 1  Min: 0  Max: 1  Default: 1
Changed value of parameter TimeLimit to 3600.0
   Prev: 1e+100  Min: 0.0  Max: 1e+100  Default: 1e+100
Optimize a model with 340 rows, 156 columns and 1230 nonzeros
Variable types: 0 continuous, 156 integer (150 binary)
Coefficient statistics:
  Matrix range     [1e+00, 4e+02]
  Objective range  [1e+00, 1e+00]
  Bounds range     [1e+00, 1e+00]
  RHS range        [1e+00, 4e+02]
Presolve time: 0.01s
Presolved: 340 rows, 156 columns, 1230 nonzeros
Variable types: 0 continuous, 156 integer (150 binary)

Root relaxation: objective 2.080000e+01, 159 iterations, 0.00 seconds

    Nodes    |    Current Node    |     Objective Bounds      |     Work
 Expl Unexpl |  Obj  Depth IntInf | Incumbent    BestBd   Gap | It/Node Time

     0     0   20.80000    0   94          -   20.80000      -     -    0s
     0     0   31.15533    0   71          -   31.15533      -     -    0s
     0     0   31.15533    0   70          -   31.15533      -     -    0s
     0     0   37.55328    0   63          -   37.55328      -     -    0s
     0     0   37.55328    0   65          -   37.55328      -     -    0s
     0     0   38.18624    0   79          -   38.18624      -     -    0s
     0     0   38.37605    0   74          -   38.37605      -     -    0s
     0     0   38.37605    0   72          -   38.37605      -     -    0s
     0     0   39.04542    0   62          -   39.04542      -     -    0s
     0     0   39.06992    0   64          -   39.06992      -     -    0s
     0     0   39.06992    0   65          -   39.06992      -     -    0s
     0     0   39.36187    0   61          -   39.36187      -     -    0s
     0     0   39.41597    0   60          -   39.41597      -     -    0s
     0     0   39.45378    0   63          -   39.45378      -     -    0s
     0     0   39.45378    0   66          -   39.45378      -     -    0s
     0     0   40.65481    0   58          -   40.65481      -     -    0s
     0     0   41.09868    0   56          -   41.09868      -     -    0s
     0     0   41.09868    0   56          -   41.09868      -     -    0s
     0     0   42.02275    0   69          -   42.02275      -     -    0s
     0     0   42.02542    0   71          -   42.02542      -     -    0s
     0     0   42.21610    0   68          -   42.21610      -     -    0s
     0     0   42.21610    0   63          -   42.21610      -     -    0s
H    0     0                     181.0000000   42.21610  76.7%     -    0s
     0     2   42.21610    0   60  181.00000   42.21610  76.7%     -    0s
H  425   213                     155.0000000   88.74510  42.7%  13.6    0s
H  862   373                     148.0000000  100.42308  32.1%  11.9    0s
H  900   359                     142.0000000  100.42308  29.3%  13.1    0s
H 1053   335                     140.0000000  100.42308  28.3%  13.2    0s

Explored 1208 nodes (17425 simplex iterations) in 0.79 seconds
Thread count was 4 (of 4 available processors)

Solution count 5: 140 142 148 ... 181

Optimal solution found (tolerance 1.00e-04)
Best objective 1.400000000000e+02, best bound 1.400000000000e+02, gap 0.0000%
